%%%mzn-stat: initTime=0.023996504
%%%mzn-stat: objective=215
%%%mzn-stat: nodes=14626
%%%mzn-stat: restarts=2
%%%mzn-stat: peakDepth=1297
%%%mzn-stat: solveTime=9.789237001
%%%mzn-stat: variables=2442
%%%mzn-stat: propagators=2040
%%%mzn-stat: failures=11277
%%%mzn-stat: propagations=624511
%%%mzn-stat: nogoods=11277
%%%mzn-stat: AverageConflictSize=18.03458366586858
%%%mzn-stat: NumUnitNogoodsLearned=184
%%%mzn-stat: AverageLearnedNogoodLength=38.15864148266383
%%%mzn-stat: AverageBacktrackAmount=0
%%%mzn-stat: AverageLbd=18.96160326327924
%%%mzn-stat-end
maxleg = 215;
succ = array1d(1..150,[127, 143, 90, 2, 125, 135, 149, 66, 130, 21, 73, 70, 138, 136, 5, 97, 28, 50, 63, 40, 8, 94, 129, 137, 69, 112, 82, 27, 49, 84, 74, 12, 30, 106, 119, 75, 88, 44, 83, 59, 16, 6, 142, 62, 7, 29, 54, 128, 3, 145, 32, 45, 13, 102, 86, 120, 98, 14, 47, 81, 25, 35, 56, 141, 118, 146, 46, 60, 109, 85, 122, 105, 36, 26, 31, 115, 150, 4, 77, 22, 91, 104, 43, 1, 96, 117, 99, 72, 67, 18, 140, 33, 37, 52, 15, 58, 24, 80, 113, 87, 111, 51, 139, 71, 92, 101, 34, 61, 76, 39, 103, 79, 55, 19, 64, 121, 68, 147, 107, 132, 23, 134, 114, 9, 131, 48, 78, 93, 133, 41, 110, 124, 126, 116, 53, 65, 100, 20, 11, 89, 123, 108, 95, 10, 144, 42, 148, 57, 38, 17]);
% time elapsed: 13.67 s
----------
%%%mzn-stat: initTime=0.023996504
%%%mzn-stat: objective=185
%%%mzn-stat: nodes=16226
%%%mzn-stat: restarts=2
%%%mzn-stat: peakDepth=1413
%%%mzn-stat: solveTime=9.884926641
%%%mzn-stat: variables=2442
%%%mzn-stat: propagators=2040
%%%mzn-stat: failures=11286
%%%mzn-stat: propagations=629074
%%%mzn-stat: nogoods=11286
%%%mzn-stat: AverageConflictSize=18.028708133971293
%%%mzn-stat: NumUnitNogoodsLearned=184
%%%mzn-stat: AverageLearnedNogoodLength=38.172426014531275
%%%mzn-stat: AverageBacktrackAmount=0
%%%mzn-stat: AverageLbd=18.96429204323941
%%%mzn-stat-end
maxleg = 185;
succ = array1d(1..150,[127, 143, 90, 2, 115, 135, 149, 134, 130, 144, 27, 70, 138, 118, 5, 97, 28, 50, 63, 48, 8, 98, 129, 137, 69, 74, 104, 82, 49, 84, 73, 12, 30, 106, 94, 139, 88, 80, 83, 59, 16, 6, 142, 62, 7, 18, 54, 128, 3, 42, 32, 22, 23, 102, 86, 105, 45, 14, 47, 67, 25, 38, 56, 141, 96, 146, 140, 60, 109, 85, 122, 114, 66, 31, 103, 78, 36, 4, 111, 34, 91, 77, 43, 1, 58, 117, 99, 123, 46, 75, 29, 33, 37, 52, 15, 13, 24, 136, 113, 87, 119, 51, 79, 71, 92, 101, 35, 61, 76, 39, 112, 26, 55, 19, 64, 121, 68, 147, 107, 132, 10, 21, 125, 9, 131, 40, 120, 93, 133, 41, 110, 124, 126, 116, 53, 65, 100, 20, 11, 81, 72, 108, 95, 145, 89, 150, 148, 57, 44, 17]);
% time elapsed: 13.77 s
----------
==========
% time elapsed: 13.77 s
%%%mzn-stat: initTime=0.023996504
%%%mzn-stat: objective=185
%%%mzn-stat: nodes=16226
%%%mzn-stat: restarts=2
%%%mzn-stat: peakDepth=1413
%%%mzn-stat: solveTime=9.884935079
%%%mzn-stat: variables=2442
%%%mzn-stat: propagators=2040
%%%mzn-stat: failures=11286
%%%mzn-stat: propagations=629074
%%%mzn-stat: nogoods=11286
%%%mzn-stat: AverageConflictSize=18.028708133971293
%%%mzn-stat: NumUnitNogoodsLearned=184
%%%mzn-stat: AverageLearnedNogoodLength=38.172426014531275
%%%mzn-stat: AverageBacktrackAmount=0
%%%mzn-stat: AverageLbd=18.96429204323941
%%%mzn-stat-end
